p cnf 51 50
x T 19 1 7 13 0
x T 20 2 8 14 0
x T 21 3 9 15 0
x T 22 4 10 16 0
x T 23 5 11 17 0
x T 24 6 12 18 0
x T 25 .2 1 7 .2 1 13 .2 7 13 0
x T 26 .2 1 8 .2 2 7 .2 1 14 .2 2 13 .2 7 14 .2 8 13 0
x T 27 .2 1 9 .2 2 8 .2 3 7 .2 1 15 .2 2 14 .2 3 13 .2 7 15 .2 8 14 .2 9 13 0
x T 28 .2 1 10 .2 2 9 .2 3 8 .2 4 7 .2 1 16 .2 2 15 .2 3 14 .2 4 13 .2 7 16 .2 8 15 .2 9 14 .2 10 13 0
x T 29 .2 1 11 .2 2 10 .2 3 9 .2 4 8 .2 5 7 .2 1 17 .2 2 16 .2 3 15 .2 4 14 .2 5 13 .2 7 17 .2 8 16 .2 9 15 .2 10 14 .2 11 13 0
x T 30 .2 1 12 .2 2 11 .2 3 10 .2 4 9 .2 5 8 .2 6 7 .2 1 18 .2 2 17 .2 3 16 .2 4 15 .2 5 14 .2 6 13 .2 7 18 .2 8 17 .2 9 16 .2 10 15 .2 11 14 .2 12 13 0
x T 31 .2 2 12 .2 3 11 .2 4 10 .2 5 9 .2 6 8 .2 2 18 .2 3 17 .2 4 16 .2 5 15 .2 6 14 .2 8 18 .2 9 17 .2 10 16 .2 11 15 .2 12 14 0
x T 32 .2 3 12 .2 4 11 .2 5 10 .2 6 9 .2 3 18 .2 4 17 .2 5 16 .2 6 15 .2 9 18 .2 10 17 .2 11 16 .2 12 15 0
x T 33 .2 4 12 .2 5 11 .2 6 10 .2 4 18 .2 5 17 .2 6 16 .2 10 18 .2 11 17 .2 12 16 0
x T 34 .2 5 12 .2 6 11 .2 5 18 .2 6 17 .2 11 18 .2 12 17 0
x T 35 .2 6 12 .2 6 18 .2 12 18 0
x T 36 .3 1 7 13 0
x T 37 .3 1 7 14 .3 1 8 13 .3 2 7 13 0
x T 38 .3 1 7 15 .3 1 8 14 .3 1 9 13 .3 2 7 14 .3 2 8 13 .3 3 7 13 0
x T 39 .3 1 7 16 .3 1 8 15 .3 1 9 14 .3 1 10 13 .3 2 7 15 .3 2 8 14 .3 2 9 13 .3 3 7 14 .3 3 8 13 .3 4 7 13 0
x T 40 .3 1 7 17 .3 1 8 16 .3 1 9 15 .3 1 10 14 .3 1 11 13 .3 2 7 16 .3 2 8 15 .3 2 9 14 .3 2 10 13 .3 3 7 15 .3 3 8 14 .3 3 9 13 .3 4 7 14 .3 4 8 13 .3 5 7 13 0
x T 41 .3 1 7 18 .3 1 8 17 .3 1 9 16 .3 1 10 15 .3 1 11 14 .3 1 12 13 .3 2 7 17 .3 2 8 16 .3 2 9 15 .3 2 10 14 .3 2 11 13 .3 3 7 16 .3 3 8 15 .3 3 9 14 .3 3 10 13 .3 4 7 15 .3 4 8 14 .3 4 9 13 .3 5 7 14 .3 5 8 13 .3 6 7 13 0
x T 42 .3 1 8 18 .3 1 9 17 .3 1 10 16 .3 1 11 15 .3 1 12 14 .3 2 7 18 .3 2 8 17 .3 2 9 16 .3 2 10 15 .3 2 11 14 .3 2 12 13 .3 3 7 17 .3 3 8 16 .3 3 9 15 .3 3 10 14 .3 3 11 13 .3 4 7 16 .3 4 8 15 .3 4 9 14 .3 4 10 13 .3 5 7 15 .3 5 8 14 .3 5 9 13 .3 6 7 14 .3 6 8 13 0
x T 43 .3 1 9 18 .3 1 10 17 .3 1 11 16 .3 1 12 15 .3 2 8 18 .3 2 9 17 .3 2 10 16 .3 2 11 15 .3 2 12 14 .3 3 7 18 .3 3 8 17 .3 3 9 16 .3 3 10 15 .3 3 11 14 .3 3 12 13 .3 4 7 17 .3 4 8 16 .3 4 9 15 .3 4 10 14 .3 4 11 13 .3 5 7 16 .3 5 8 15 .3 5 9 14 .3 5 10 13 .3 6 7 15 .3 6 8 14 .3 6 9 13 0
x T 44 .3 1 10 18 .3 1 11 17 .3 1 12 16 .3 2 9 18 .3 2 10 17 .3 2 11 16 .3 2 12 15 .3 3 8 18 .3 3 9 17 .3 3 10 16 .3 3 11 15 .3 3 12 14 .3 4 7 18 .3 4 8 17 .3 4 9 16 .3 4 10 15 .3 4 11 14 .3 4 12 13 .3 5 7 17 .3 5 8 16 .3 5 9 15 .3 5 10 14 .3 5 11 13 .3 6 7 16 .3 6 8 15 .3 6 9 14 .3 6 10 13 0
x T 45 .3 1 11 18 .3 1 12 17 .3 2 10 18 .3 2 11 17 .3 2 12 16 .3 3 9 18 .3 3 10 17 .3 3 11 16 .3 3 12 15 .3 4 8 18 .3 4 9 17 .3 4 10 16 .3 4 11 15 .3 4 12 14 .3 5 7 18 .3 5 8 17 .3 5 9 16 .3 5 10 15 .3 5 11 14 .3 5 12 13 .3 6 7 17 .3 6 8 16 .3 6 9 15 .3 6 10 14 .3 6 11 13 0
x T 46 .3 1 12 18 .3 2 11 18 .3 2 12 17 .3 3 10 18 .3 3 11 17 .3 3 12 16 .3 4 9 18 .3 4 10 17 .3 4 11 16 .3 4 12 15 .3 5 8 18 .3 5 9 17 .3 5 10 16 .3 5 11 15 .3 5 12 14 .3 6 7 18 .3 6 8 17 .3 6 9 16 .3 6 10 15 .3 6 11 14 .3 6 12 13 0
x T 47 .3 2 12 18 .3 3 11 18 .3 3 12 17 .3 4 10 18 .3 4 11 17 .3 4 12 16 .3 5 9 18 .3 5 10 17 .3 5 11 16 .3 5 12 15 .3 6 8 18 .3 6 9 17 .3 6 10 16 .3 6 11 15 .3 6 12 14 0
x T 48 .3 3 12 18 .3 4 11 18 .3 4 12 17 .3 5 10 18 .3 5 11 17 .3 5 12 16 .3 6 9 18 .3 6 10 17 .3 6 11 16 .3 6 12 15 0
x T 49 .3 4 12 18 .3 5 11 18 .3 5 12 17 .3 6 10 18 .3 6 11 17 .3 6 12 16 0
x T 50 .3 5 12 18 .3 6 11 18 .3 6 12 17 0
x T 51 .3 6 12 18 0
x 19 36 39 40 41 42 44 45 46 47 48 49 51 .2 20 36 .2 20 37 .2 20 38 .2 20 39 .2 20 40 .2 20 42 .2 20 44 .2 20 45 .2 20 47 .2 20 49 .2 20 51 .2 21 39 .2 21 40 .2 21 41 .2 21 42 .2 21 44 .2 21 45 .2 21 46 .2 21 47 .2 21 48 .2 21 49 .2 21 51 .2 22 36 .2 22 39 .2 22 44 .2 22 46 .2 22 50 .2 22 51 .2 23 36 .2 23 39 .2 23 41 .2 23 46 .2 23 50 .2 24 36 .2 24 37 .2 24 38 .2 24 39 .2 24 40 .2 24 41 .2 24 43 .2 24 44 .2 24 45 .2 24 47 .2 24 50 .2 24 51 .2 25 36 .2 25 38 .2 25 39 .2 25 41 .2 25 42 .2 25 44 .2 25 45 .2 25 46 .2 25 47 .2 25 49 .2 25 50 .2 26 36 .2 26 37 .2 26 39 .2 26 40 .2 26 42 .2 26 43 .2 26 44 .2 26 45 .2 26 47 .2 26 48 .2 26 50 .2 27 37 .2 27 38 .2 27 40 .2 27 41 .2 27 42 .2 27 43 .2 27 45 .2 27 46 .2 27 48 .2 28 36 .2 28 38 .2 28 39 .2 28 40 .2 28 41 .2 28 43 .2 28 44 .2 28 46 .2 29 36 .2 29 37 .2 29 38 .2 29 39 .2 29 41 .2 29 42 .2 29 44 .2 30 36 .2 30 37 .2 30 39 .2 30 40 .2 30 42 .2 30 50 .2 31 37 .2 31 38 .2 31 40 .2 31 48 .2 31 50 .2 32 36 .2 32 38 .2 32 46 .2 32 48 .2 33 36 .2 33 44 .2 33 46 .2 33 51 .2 34 42 .2 34 44 .2 34 49 .2 34 51 .2 35 40 .2 35 42 .2 35 47 .2 35 49 .2 36 37 .2 36 39 .2 36 40 .2 36 41 .2 36 42 .2 36 46 .2 36 47 .2 36 48 .2 36 50 .2 37 38 .2 37 39 .2 37 40 .2 37 41 .2 37 42 .2 37 46 .2 37 47 .2 37 49 .2 37 50 .2 38 39 .2 38 40 .2 38 45 .2 38 47 .2 38 48 .2 38 49 .2 38 51 .2 39 40 .2 39 41 .2 39 44 .2 39 45 .2 39 48 .2 39 49 .2 39 50 .2 40 42 .2 40 46 .2 40 47 .2 40 49 .2 41 42 .2 41 43 .2 41 44 .2 41 46 .2 41 49 .2 41 51 .2 42 44 .2 42 48 .2 42 50 .2 42 51 .2 43 44 .2 43 45 .2 44 46 .2 44 47 .2 44 48 .2 44 49 .2 45 46 .2 45 48 .2 45 49 .2 46 48 .2 46 49 .2 46 50 .2 47 49 .2 47 50 .2 48 50 .2 48 51 .2 49 50 .2 50 51 0
x 25 26 28 29 30 32 33 38 40 41 42 44 45 47 49 51 .2 19 36 .2 19 39 .2 19 40 .2 19 42 .2 19 45 .2 19 46 .2 19 49 .2 19 50 .2 20 37 .2 20 40 .2 20 43 .2 20 44 .2 20 46 .2 20 49 .2 20 50 .2 20 51 .2 21 37 .2 21 38 .2 21 41 .2 21 42 .2 21 44 .2 21 45 .2 21 46 .2 21 49 .2 22 39 .2 22 40 .2 22 42 .2 22 43 .2 22 45 .2 22 46 .2 22 49 .2 23 37 .2 23 38 .2 23 40 .2 23 41 .2 23 45 .2 23 46 .2 23 47 .2 23 48 .2 23 50 .2 23 51 .2 24 36 .2 24 38 .2 24 39 .2 24 42 .2 24 46 .2 24 47 .2 24 48 .2 24 49 .2 24 51 .2 25 37 .2 25 39 .2 25 40 .2 25 42 .2 25 43 .2 25 45 .2 25 46 .2 25 47 .2 25 48 .2 25 50 .2 25 51 .2 26 37 .2 26 38 .2 26 40 .2 26 41 .2 26 43 .2 26 44 .2 26 45 .2 26 46 .2 26 48 .2 26 49 .2 26 51 .2 27 36 .2 27 38 .2 27 39 .2 27 41 .2 27 42 .2 27 43 .2 27 44 .2 27 46 .2 27 47 .2 27 49 .2 28 36 .2 28 37 .2 28 39 .2 28 40 .2 28 41 .2 28 42 .2 28 44 .2 28 45 .2 28 47 .2 29 37 .2 29 38 .2 29 39 .2 29 40 .2 29 42 .2 29 43 .2 29 45 .2 30 36 .2 30 37 .2 30 38 .2 30 40 .2 30 41 .2 30 43 .2 30 51 .2 31 36 .2 31 38 .2 31 39 .2 31 41 .2 31 49 .2 31 51 .2 32 36 .2 32 37 .2 32 39 .2 32 47 .2 32 49 .2 33 37 .2 33 45 .2 33 47 .2 34 43 .2 34 45 .2 34 50 .2 35 41 .2 35 43 .2 35 48 .2 35 50 .2 36 39 .2 36 40 .2 36 41 .2 36 44 .2 36 45 .2 36 49 .2 37 38 .2 37 42 .2 37 43 .2 37 45 .2 37 47 .2 38 40 .2 38 42 .2 38 43 .2 38 44 .2 38 47 .2 38 48 .2 38 49 .2 38 51 .2 39 40 .2 39 41 .2 39 42 .2 39 44 .2 39 45 .2 39 46 .2 39 47 .2 39 51 .2 40 41 .2 40 42 .2 40 45 .2 40 46 .2 40 47 .2 40 48 .2 40 49 .2 41 44 .2 41 45 .2 41 46 .2 41 47 .2 41 48 .2 41 49 .2 41 50 .2 41 51 .2 42 44 .2 42 48 .2 42 51 .2 43 46 .2 43 47 .2 43 48 .2 43 50 .2 44 49 .2 44 50 .2 44 51 .2 45 46 .2 45 50 .2 46 47 .2 46 49 .2 46 51 .2 47 48 .2 47 50 .2 48 49 .2 49 50 .2 50 51 0
x T 25 28 29 31 34 35 37 39 41 43 44 45 49 50 51 .2 19 36 .2 19 39 .2 19 40 .2 19 41 .2 19 42 .2 19 43 .2 19 45 .2 19 47 .2 19 48 .2 19 50 .2 21 36 .2 21 37 .2 21 38 .2 21 39 .2 21 40 .2 21 42 .2 21 44 .2 21 45 .2 21 47 .2 21 49 .2 21 51 .2 22 39 .2 22 40 .2 22 41 .2 22 42 .2 22 44 .2 22 45 .2 22 46 .2 22 47 .2 22 48 .2 22 49 .2 22 51 .2 23 36 .2 23 39 .2 23 44 .2 23 46 .2 23 50 .2 23 51 .2 24 36 .2 24 39 .2 24 41 .2 24 46 .2 24 50 .2 25 38 .2 25 40 .2 25 41 .2 25 43 .2 25 44 .2 25 46 .2 25 47 .2 25 48 .2 25 49 .2 25 51 .2 26 36 .2 26 38 .2 26 39 .2 26 41 .2 26 42 .2 26 44 .2 26 45 .2 26 46 .2 26 47 .2 26 49 .2 26 50 .2 27 36 .2 27 37 .2 27 39 .2 27 40 .2 27 42 .2 27 43 .2 27 44 .2 27 45 .2 27 47 .2 27 48 .2 27 50 .2 28 37 .2 28 38 .2 28 40 .2 28 41 .2 28 42 .2 28 43 .2 28 45 .2 28 46 .2 28 48 .2 29 36 .2 29 38 .2 29 39 .2 29 40 .2 29 41 .2 29 43 .2 29 44 .2 29 46 .2 30 36 .2 30 37 .2 30 38 .2 30 39 .2 30 41 .2 30 42 .2 30 44 .2 31 36 .2 31 37 .2 31 39 .2 31 40 .2 31 42 .2 31 50 .2 32 37 .2 32 38 .2 32 40 .2 32 48 .2 32 50 .2 33 36 .2 33 38 .2 33 46 .2 33 48 .2 34 36 .2 34 44 .2 34 46 .2 34 51 .2 35 42 .2 35 44 .2 35 49 .2 35 51 .2 36 38 .2 36 39 .2 36 45 .2 36 49 .2 36 50 .2 36 51 .2 37 38 .2 37 42 .2 37 45 .2 37 46 .2 37 47 .2 37 51 .2 38 39 .2 38 40 .2 38 43 .2 38 44 .2 38 49 .2 38 51 .2 39 44 .2 39 45 .2 39 48 .2 39 50 .2 39 51 .2 40 42 .2 40 43 .2 40 44 .2 40 46 .2 40 48 .2 41 42 .2 41 43 .2 41 47 .2 41 48 .2 41 51 .2 42 43 .2 42 45 .2 42 46 .2 42 48 .2 42 51 .2 43 44 .2 43 45 .2 43 47 .2 43 51 .2 44 45 .2 44 47 .2 44 48 .2 44 51 .2 45 48 .2 46 47 .2 46 48 .2 46 49 .2 46 50 .2 47 49 .2 47 50 .2 47 51 .2 48 50 .2 48 51 .2 50 51 0
x T 24 26 27 29 30 34 35 36 41 43 45 46 48 49 50 51 .2 19 42 .2 19 44 .2 19 47 .2 19 48 .2 19 49 .2 19 50 .2 20 37 .2 20 38 .2 20 44 .2 20 46 .2 20 47 .2 20 50 .2 20 51 .2 21 37 .2 21 39 .2 21 41 .2 21 42 .2 21 43 .2 21 45 .2 21 47 .2 21 48 .2 21 50 .2 22 36 .2 22 37 .2 22 38 .2 22 39 .2 22 41 .2 22 42 .2 22 45 .2 22 49 .2 22 50 .2 22 51 .2 23 36 .2 23 40 .2 23 41 .2 23 42 .2 23 43 .2 23 45 .2 23 49 .2 23 50 .2 24 36 .2 24 39 .2 24 43 .2 24 44 .2 24 46 .2 24 48 .2 25 36 .2 25 38 .2 25 46 .2 25 48 .2 26 36 .2 26 44 .2 26 46 .2 26 51 .2 27 42 .2 27 44 .2 27 49 .2 27 51 .2 28 40 .2 28 42 .2 28 47 .2 28 49 .2 29 38 .2 29 40 .2 29 45 .2 29 47 .2 30 36 .2 30 38 .2 30 43 .2 30 45 .2 30 50 .2 31 36 .2 31 41 .2 31 43 .2 31 48 .2 31 50 .2 31 51 .2 32 39 .2 32 41 .2 32 46 .2 32 48 .2 32 49 .2 32 51 .2 33 37 .2 33 39 .2 33 44 .2 33 46 .2 33 47 .2 33 49 .2 33 51 .2 34 37 .2 34 42 .2 34 44 .2 34 45 .2 34 47 .2 34 49 .2 34 51 .2 35 40 .2 35 42 .2 35 43 .2 35 45 .2 35 47 .2 35 49 .2 35 50 .2 36 39 .2 36 40 .2 36 41 .2 36 42 .2 36 43 .2 36 44 .2 36 45 .2 36 46 .2 36 47 .2 36 49 .2 36 51 .2 37 39 .2 37 43 .2 37 46 .2 37 48 .2 37 50 .2 37 51 .2 38 41 .2 38 42 .2 38 43 .2 38 45 .2 38 49 .2 38 50 .2 39 44 .2 39 45 .2 39 46 .2 40 41 .2 40 45 .2 40 47 .2 40 50 .2 40 51 .2 41 42 .2 41 44 .2 41 46 .2 41 47 .2 41 48 .2 41 49 .2 41 50 .2 41 51 .2 42 43 .2 42 45 .2 42 47 .2 42 48 .2 42 51 .2 43 44 .2 43 49 .2 43 51 .2 44 45 .2 44 47 .2 44 48 .2 44 49 .2 45 46 .2 45 47 .2 45 50 .2 46 47 .2 46 48 .2 47 51 .2 49 50 .2 49 51 0
x T 20 26 31 33 34 36 38 41 44 45 46 47 49 50 .2 19 38 .2 19 39 .2 19 42 .2 19 47 .2 19 48 .2 19 49 .2 19 51 .2 20 36 .2 20 37 .2 20 39 .2 20 41 .2 20 42 .2 20 44 .2 20 45 .2 20 46 .2 20 47 .2 20 48 .2 20 49 .2 20 51 .2 21 37 .2 21 38 .2 21 41 .2 21 42 .2 21 44 .2 21 45 .2 21 46 .2 21 49 .2 22 36 .2 22 37 .2 22 38 .2 22 43 .2 22 44 .2 22 46 .2 22 47 .2 22 51 .2 23 37 .2 23 38 .2 23 39 .2 23 42 .2 23 44 .2 23 49 .2 23 50 .2 24 38 .2 24 42 .2 24 44 .2 24 47 .2 24 48 .2 24 49 .2 24 50 .2 25 36 .2 25 37 .2 25 39 .2 25 47 .2 25 49 .2 26 37 .2 26 45 .2 26 47 .2 27 43 .2 27 45 .2 27 50 .2 28 41 .2 28 43 .2 28 48 .2 28 50 .2 29 39 .2 29 41 .2 29 46 .2 29 48 .2 30 37 .2 30 39 .2 30 44 .2 30 46 .2 30 51 .2 31 37 .2 31 42 .2 31 44 .2 31 49 .2 31 51 .2 32 40 .2 32 42 .2 32 47 .2 32 49 .2 32 50 .2 33 38 .2 33 40 .2 33 45 .2 33 47 .2 33 48 .2 33 50 .2 34 36 .2 34 38 .2 34 43 .2 34 45 .2 34 46 .2 34 48 .2 34 50 .2 35 36 .2 35 41 .2 35 43 .2 35 44 .2 35 46 .2 35 48 .2 35 50 .2 35 51 .2 36 37 .2 36 38 .2 36 42 .2 36 43 .2 36 46 .2 36 47 .2 36 51 .2 37 38 .2 37 40 .2 37 41 .2 37 43 .2 37 46 .2 37 47 .2 37 50 .2 38 39 .2 38 40 .2 38 42 .2 38 46 .2 38 47 .2 38 49 .2 38 51 .2 39 40 .2 39 42 .2 39 43 .2 39 46 .2 39 47 .2 39 48 .2 39 49 .2 39 50 .2 39 51 .2 40 43 .2 40 49 .2 41 42 .2 41 43 .2 41 44 .2 41 45 .2 41 51 .2 42 44 .2 42 45 .2 42 46 .2 42 47 .2 42 49 .2 42 50 .2 43 45 .2 43 46 .2 43 47 .2 43 48 .2 43 49 .2 43 50 .2 44 47 .2 44 48 .2 44 50 .2 45 46 .2 45 51 .2 46 49 .2 48 51 0
x 25 28 33 35 42 44 48 49 50 51 .2 19 36 .2 19 38 .2 19 40 .2 19 41 .2 19 43 .2 19 44 .2 19 45 .2 19 46 .2 19 47 .2 19 48 .2 19 49 .2 19 50 .2 20 42 .2 20 44 .2 20 47 .2 20 48 .2 20 49 .2 20 50 .2 21 37 .2 21 38 .2 21 44 .2 21 46 .2 21 47 .2 21 50 .2 21 51 .2 22 37 .2 22 39 .2 22 41 .2 22 42 .2 22 43 .2 22 45 .2 22 47 .2 22 48 .2 22 50 .2 23 36 .2 23 37 .2 23 38 .2 23 39 .2 23 41 .2 23 42 .2 23 45 .2 23 49 .2 23 50 .2 23 51 .2 24 36 .2 24 40 .2 24 41 .2 24 42 .2 24 43 .2 24 45 .2 24 49 .2 24 50 .2 25 37 .2 25 38 .2 25 40 .2 25 48 .2 25 50 .2 26 36 .2 26 38 .2 26 46 .2 26 48 .2 27 36 .2 27 44 .2 27 46 .2 27 51 .2 28 42 .2 28 44 .2 28 49 .2 28 51 .2 29 40 .2 29 42 .2 29 47 .2 29 49 .2 30 38 .2 30 40 .2 30 45 .2 30 47 .2 31 36 .2 31 38 .2 31 43 .2 31 45 .2 31 50 .2 32 36 .2 32 41 .2 32 43 .2 32 48 .2 32 50 .2 32 51 .2 33 39 .2 33 41 .2 33 46 .2 33 48 .2 33 49 .2 33 51 .2 34 37 .2 34 39 .2 34 44 .2 34 46 .2 34 47 .2 34 49 .2 34 51 .2 35 37 .2 35 42 .2 35 44 .2 35 45 .2 35 47 .2 35 49 .2 35 51 .2 36 38 .2 36 42 .2 36 43 .2 36 45 .2 36 48 .2 36 50 .2 36 51 .2 37 38 .2 37 39 .2 37 40 .2 37 42 .2 37 45 .2 37 47 .2 37 50 .2 38 40 .2 38 44 .2 38 46 .2 38 47 .2 38 48 .2 38 49 .2 38 51 .2 39 40 .2 39 41 .2 39 48 .2 39 51 .2 40 42 .2 40 43 .2 40 44 .2 40 45 .2 40 48 .2 40 49 .2 40 51 .2 41 42 .2 41 44 .2 41 45 .2 41 48 .2 41 49 .2 41 51 .2 42 44 .2 42 45 .2 42 46 .2 42 49 .2 42 51 .2 43 45 .2 43 46 .2 43 49 .2 43 51 .2 44 46 .2 44 47 .2 44 51 .2 45 46 .2 45 49 .2 46 47 .2 46 48 .2 46 50 .2 47 48 .2 49 51 .2 50 51 0
x T 24 26 27 29 30 31 33 34 35 46 49 50 51 .2 19 36 .2 19 37 .2 19 40 .2 19 41 .2 19 42 .2 19 43 .2 19 45 .2 19 47 .2 19 49 .2 19 50 .2 20 38 .2 20 39 .2 20 42 .2 20 47 .2 20 48 .2 20 49 .2 20 51 .2 21 36 .2 21 37 .2 21 39 .2 21 41 .2 21 42 .2 21 44 .2 21 45 .2 21 46 .2 21 47 .2 21 48 .2 21 49 .2 21 51 .2 22 37 .2 22 38 .2 22 41 .2 22 42 .2 22 44 .2 22 45 .2 22 46 .2 22 49 .2 23 36 .2 23 37 .2 23 38 .2 23 43 .2 23 44 .2 23 46 .2 23 47 .2 23 51 .2 24 37 .2 24 38 .2 24 39 .2 24 42 .2 24 44 .2 24 49 .2 24 50 .2 25 36 .2 25 38 .2 25 39 .2 25 41 .2 25 49 .2 25 51 .2 26 36 .2 26 37 .2 26 39 .2 26 47 .2 26 49 .2 27 37 .2 27 45 .2 27 47 .2 28 43 .2 28 45 .2 28 50 .2 29 41 .2 29 43 .2 29 48 .2 29 50 .2 30 39 .2 30 41 .2 30 46 .2 30 48 .2 31 37 .2 31 39 .2 31 44 .2 31 46 .2 31 51 .2 32 37 .2 32 42 .2 32 44 .2 32 49 .2 32 51 .2 33 40 .2 33 42 .2 33 47 .2 33 49 .2 33 50 .2 34 38 .2 34 40 .2 34 45 .2 34 47 .2 34 48 .2 34 50 .2 35 36 .2 35 38 .2 35 43 .2 35 45 .2 35 46 .2 35 48 .2 35 50 .2 36 37 .2 36 38 .2 36 41 .2 36 42 .2 36 43 .2 36 44 .2 36 45 .2 37 40 .2 37 41 .2 37 42 .2 37 43 .2 37 44 .2 37 45 .2 37 46 .2 37 47 .2 37 48 .2 37 50 .2 38 40 .2 38 44 .2 38 47 .2 38 49 .2 38 51 .2 39 42 .2 39 43 .2 39 44 .2 39 46 .2 39 50 .2 39 51 .2 40 45 .2 40 46 .2 40 47 .2 41 42 .2 41 46 .2 41 48 .2 41 51 .2 42 43 .2 42 45 .2 42 47 .2 42 48 .2 42 49 .2 42 50 .2 42 51 .2 43 44 .2 43 46 .2 43 48 .2 43 49 .2 44 45 .2 44 50 .2 45 46 .2 45 48 .2 45 49 .2 45 50 .2 46 47 .2 46 48 .2 46 51 .2 47 48 .2 47 49 .2 50 51 0
x 28 29 31 32 34 35 38 40 41 42 44 46 47 48 49 .2 19 36 .2 19 37 .2 19 38 .2 19 39 .2 19 40 .2 19 41 .2 19 43 .2 19 44 .2 19 45 .2 19 47 .2 19 50 .2 19 51 .2 20 36 .2 20 38 .2 20 40 .2 20 41 .2 20 43 .2 20 44 .2 20 45 .2 20 46 .2 20 47 .2 20 48 .2 20 49 .2 20 50 .2 21 42 .2 21 44 .2 21 47 .2 21 48 .2 21 49 .2 21 50 .2 22 37 .2 22 38 .2 22 44 .2 22 46 .2 22 47 .2 22 50 .2 22 51 .2 23 37 .2 23 39 .2 23 41 .2 23 42 .2 23 43 .2 23 45 .2 23 47 .2 23 48 .2 23 50 .2 24 36 .2 24 37 .2 24 38 .2 24 39 .2 24 41 .2 24 42 .2 24 45 .2 24 49 .2 24 50 .2 24 51 .2 25 36 .2 25 37 .2 25 39 .2 25 40 .2 25 42 .2 25 50 .2 26 37 .2 26 38 .2 26 40 .2 26 48 .2 26 50 .2 27 36 .2 27 38 .2 27 46 .2 27 48 .2 28 36 .2 28 44 .2 28 46 .2 28 51 .2 29 42 .2 29 44 .2 29 49 .2 29 51 .2 30 40 .2 30 42 .2 30 47 .2 30 49 .2 31 38 .2 31 40 .2 31 45 .2 31 47 .2 32 36 .2 32 38 .2 32 43 .2 32 45 .2 32 50 .2 33 36 .2 33 41 .2 33 43 .2 33 48 .2 33 50 .2 33 51 .2 34 39 .2 34 41 .2 34 46 .2 34 48 .2 34 49 .2 34 51 .2 35 37 .2 35 39 .2 35 44 .2 35 46 .2 35 47 .2 35 49 .2 35 51 .2 36 38 .2 36 39 .2 36 40 .2 36 42 .2 36 44 .2 36 48 .2 36 51 .2 37 38 .2 37 39 .2 37 43 .2 37 44 .2 37 47 .2 37 48 .2 38 39 .2 38 41 .2 38 42 .2 38 44 .2 38 47 .2 38 48 .2 38 51 .2 39 40 .2 39 41 .2 39 43 .2 39 47 .2 39 48 .2 39 50 .2 40 41 .2 40 43 .2 40 44 .2 40 47 .2 40 48 .2 40 49 .2 40 50 .2 40 51 .2 41 44 .2 41 50 .2 42 43 .2 42 44 .2 42 45 .2 42 46 .2 43 45 .2 43 46 .2 43 47 .2 43 48 .2 43 50 .2 43 51 .2 44 46 .2 44 47 .2 44 48 .2 44 49 .2 44 50 .2 44 51 .2 45 48 .2 45 49 .2 45 51 .2 46 47 .2 47 50 0
x 21 25 27 31 33 35 36 38 40 45 47 49 50 .2 19 36 .2 19 38 .2 19 39 .2 19 42 .2 19 46 .2 19 47 .2 19 48 .2 19 49 .2 19 51 .2 20 36 .2 20 37 .2 20 40 .2 20 41 .2 20 42 .2 20 43 .2 20 45 .2 20 47 .2 20 49 .2 20 50 .2 21 38 .2 21 39 .2 21 42 .2 21 47 .2 21 48 .2 21 49 .2 21 51 .2 22 36 .2 22 37 .2 22 39 .2 22 41 .2 22 42 .2 22 44 .2 22 45 .2 22 46 .2 22 47 .2 22 48 .2 22 49 .2 22 51 .2 23 37 .2 23 38 .2 23 41 .2 23 42 .2 23 44 .2 23 45 .2 23 46 .2 23 49 .2 24 36 .2 24 37 .2 24 38 .2 24 43 .2 24 44 .2 24 46 .2 24 47 .2 24 51 .2 25 36 .2 25 37 .2 25 38 .2 25 40 .2 25 41 .2 25 43 .2 25 51 .2 26 36 .2 26 38 .2 26 39 .2 26 41 .2 26 49 .2 26 51 .2 27 36 .2 27 37 .2 27 39 .2 27 47 .2 27 49 .2 28 37 .2 28 45 .2 28 47 .2 29 43 .2 29 45 .2 29 50 .2 30 41 .2 30 43 .2 30 48 .2 30 50 .2 31 39 .2 31 41 .2 31 46 .2 31 48 .2 32 37 .2 32 39 .2 32 44 .2 32 46 .2 32 51 .2 33 37 .2 33 42 .2 33 44 .2 33 49 .2 33 51 .2 34 40 .2 34 42 .2 34 47 .2 34 49 .2 34 50 .2 35 38 .2 35 40 .2 35 45 .2 35 47 .2 35 48 .2 35 50 .2 36 37 .2 36 38 .2 36 41 .2 36 42 .2 36 45 .2 36 46 .2 36 47 .2 36 49 .2 36 50 .2 37 39 .2 37 43 .2 37 44 .2 37 46 .2 37 49 .2 37 51 .2 38 39 .2 38 40 .2 38 41 .2 38 43 .2 38 46 .2 38 48 .2 38 51 .2 39 41 .2 39 45 .2 39 47 .2 39 48 .2 39 49 .2 39 50 .2 40 41 .2 40 42 .2 40 49 .2 41 43 .2 41 44 .2 41 45 .2 41 46 .2 41 49 .2 41 50 .2 42 43 .2 42 45 .2 42 46 .2 42 49 .2 42 50 .2 43 45 .2 43 46 .2 43 47 .2 43 50 .2 44 46 .2 44 47 .2 44 50 .2 45 47 .2 45 48 .2 46 47 .2 46 50 .2 47 48 .2 47 49 .2 47 51 .2 48 49 0
x T 28 29 30 31 33 34 35 37 39 40 44 45 .2 19 36 .2 19 39 .2 19 41 .2 19 46 .2 19 50 .2 20 36 .2 20 37 .2 20 38 .2 20 39 .2 20 40 .2 20 41 .2 20 43 .2 20 44 .2 20 45 .2 20 47 .2 20 50 .2 20 51 .2 21 36 .2 21 38 .2 21 40 .2 21 41 .2 21 43 .2 21 44 .2 21 45 .2 21 46 .2 21 47 .2 21 48 .2 21 49 .2 21 50 .2 22 42 .2 22 44 .2 22 47 .2 22 48 .2 22 49 .2 22 50 .2 23 37 .2 23 38 .2 23 44 .2 23 46 .2 23 47 .2 23 50 .2 23 51 .2 24 37 .2 24 39 .2 24 41 .2 24 42 .2 24 43 .2 24 45 .2 24 47 .2 24 48 .2 24 50 .2 25 36 .2 25 37 .2 25 38 .2 25 39 .2 25 41 .2 25 42 .2 25 44 .2 26 36 .2 26 37 .2 26 39 .2 26 40 .2 26 42 .2 26 50 .2 27 37 .2 27 38 .2 27 40 .2 27 48 .2 27 50 .2 28 36 .2 28 38 .2 28 46 .2 28 48 .2 29 36 .2 29 44 .2 29 46 .2 29 51 .2 30 42 .2 30 44 .2 30 49 .2 30 51 .2 31 40 .2 31 42 .2 31 47 .2 31 49 .2 32 38 .2 32 40 .2 32 45 .2 32 47 .2 33 36 .2 33 38 .2 33 43 .2 33 45 .2 33 50 .2 34 36 .2 34 41 .2 34 43 .2 34 48 .2 34 50 .2 34 51 .2 35 39 .2 35 41 .2 35 46 .2 35 48 .2 35 49 .2 35 51 .2 36 37 .2 36 38 .2 36 39 .2 36 41 .2 36 42 .2 36 43 .2 36 44 .2 36 48 .2 36 49 .2 36 50 .2 36 51 .2 37 38 .2 37 39 .2 37 42 .2 37 43 .2 37 44 .2 37 45 .2 37 46 .2 38 41 .2 38 42 .2 38 43 .2 38 44 .2 38 45 .2 38 46 .2 38 47 .2 38 48 .2 38 49 .2 38 51 .2 39 41 .2 39 45 .2 39 48 .2 39 50 .2 40 43 .2 40 44 .2 40 45 .2 40 47 .2 40 51 .2 41 46 .2 41 47 .2 41 48 .2 42 43 .2 42 47 .2 42 49 .2 43 44 .2 43 46 .2 43 48 .2 43 49 .2 43 50 .2 43 51 .2 44 45 .2 44 47 .2 44 49 .2 44 50 .2 45 46 .2 45 51 .2 46 47 .2 46 49 .2 46 50 .2 46 51 .2 47 48 .2 47 49 .2 48 49 .2 48 50 0
x 25 27 28 30 31 33 36 38 40 42 46 50 .2 19 37 .2 19 38 .2 19 40 .2 19 41 .2 19 45 .2 19 46 .2 19 47 .2 19 48 .2 19 50 .2 19 51 .2 20 36 .2 20 38 .2 20 39 .2 20 42 .2 20 46 .2 20 47 .2 20 48 .2 20 49 .2 20 51 .2 21 36 .2 21 37 .2 21 40 .2 21 41 .2 21 42 .2 21 43 .2 21 45 .2 21 47 .2 21 49 .2 21 50 .2 22 38 .2 22 39 .2 22 42 .2 22 47 .2 22 48 .2 22 49 .2 22 51 .2 23 36 .2 23 37 .2 23 39 .2 23 41 .2 23 42 .2 23 44 .2 23 45 .2 23 46 .2 23 47 .2 23 48 .2 23 49 .2 23 51 .2 24 37 .2 24 38 .2 24 41 .2 24 42 .2 24 44 .2 24 45 .2 24 46 .2 24 49 .2 25 37 .2 25 38 .2 25 39 .2 25 40 .2 25 42 .2 25 43 .2 25 45 .2 26 36 .2 26 37 .2 26 38 .2 26 40 .2 26 41 .2 26 43 .2 26 51 .2 27 36 .2 27 38 .2 27 39 .2 27 41 .2 27 49 .2 27 51 .2 28 36 .2 28 37 .2 28 39 .2 28 47 .2 28 49 .2 29 37 .2 29 45 .2 29 47 .2 30 43 .2 30 45 .2 30 50 .2 31 41 .2 31 43 .2 31 48 .2 31 50 .2 32 39 .2 32 41 .2 32 46 .2 32 48 .2 33 37 .2 33 39 .2 33 44 .2 33 46 .2 33 51 .2 34 37 .2 34 42 .2 34 44 .2 34 49 .2 34 51 .2 35 40 .2 35 42 .2 35 47 .2 35 49 .2 35 50 .2 36 41 .2 36 42 .2 36 45 .2 36 47 .2 36 48 .2 36 49 .2 36 50 .2 37 39 .2 37 40 .2 37 41 .2 37 43 .2 37 45 .2 37 49 .2 38 39 .2 38 40 .2 38 44 .2 38 45 .2 38 48 .2 38 49 .2 39 40 .2 39 42 .2 39 43 .2 39 45 .2 39 48 .2 39 49 .2 40 41 .2 40 42 .2 40 44 .2 40 48 .2 40 49 .2 40 51 .2 41 42 .2 41 44 .2 41 45 .2 41 48 .2 41 49 .2 41 50 .2 41 51 .2 42 45 .2 42 51 .2 43 44 .2 43 45 .2 43 46 .2 43 47 .2 44 46 .2 44 47 .2 44 48 .2 44 49 .2 44 51 .2 45 47 .2 45 48 .2 45 49 .2 45 50 .2 45 51 .2 46 49 .2 46 50 .2 47 48 .2 48 51 0
x 26 27 30 31 33 34 35 37 38 39 41 43 48 50 .2 19 36 .2 19 39 .2 19 44 .2 19 46 .2 19 50 .2 19 51 .2 20 36 .2 20 39 .2 20 41 .2 20 46 .2 20 50 .2 21 36 .2 21 37 .2 21 38 .2 21 39 .2 21 40 .2 21 41 .2 21 43 .2 21 44 .2 21 45 .2 21 47 .2 21 50 .2 21 51 .2 22 36 .2 22 38 .2 22 40 .2 22 41 .2 22 43 .2 22 44 .2 22 45 .2 22 46 .2 22 47 .2 22 48 .2 22 49 .2 22 50 .2 23 42 .2 23 44 .2 23 47 .2 23 48 .2 23 49 .2 23 50 .2 24 37 .2 24 38 .2 24 44 .2 24 46 .2 24 47 .2 24 50 .2 24 51 .2 25 36 .2 25 38 .2 25 39 .2 25 40 .2 25 41 .2 25 43 .2 25 44 .2 25 46 .2 26 36 .2 26 37 .2 26 38 .2 26 39 .2 26 41 .2 26 42 .2 26 44 .2 27 36 .2 27 37 .2 27 39 .2 27 40 .2 27 42 .2 27 50 .2 28 37 .2 28 38 .2 28 40 .2 28 48 .2 28 50 .2 29 36 .2 29 38 .2 29 46 .2 29 48 .2 30 36 .2 30 44 .2 30 46 .2 30 51 .2 31 42 .2 31 44 .2 31 49 .2 31 51 .2 32 40 .2 32 42 .2 32 47 .2 32 49 .2 33 38 .2 33 40 .2 33 45 .2 33 47 .2 34 36 .2 34 38 .2 34 43 .2 34 45 .2 34 50 .2 35 36 .2 35 41 .2 35 43 .2 35 48 .2 35 50 .2 35 51 .2 36 37 .2 36 38 .2 36 43 .2 36 45 .2 36 46 .2 36 47 .2 36 49 .2 36 51 .2 37 38 .2 37 39 .2 37 42 .2 37 43 .2 37 46 .2 37 47 .2 37 48 .2 37 50 .2 37 51 .2 38 40 .2 38 44 .2 38 45 .2 38 47 .2 38 50 .2 39 40 .2 39 41 .2 39 42 .2 39 44 .2 39 47 .2 39 49 .2 40 42 .2 40 46 .2 40 48 .2 40 49 .2 40 50 .2 40 51 .2 41 42 .2 41 43 .2 41 50 .2 42 44 .2 42 45 .2 42 46 .2 42 47 .2 42 50 .2 42 51 .2 43 44 .2 43 46 .2 43 47 .2 43 50 .2 43 51 .2 44 46 .2 44 47 .2 44 48 .2 44 51 .2 45 47 .2 45 48 .2 45 51 .2 46 48 .2 46 49 .2 47 48 .2 47 51 .2 48 49 .2 48 50 .2 49 50 0
x T 22 25 26 28 32 33 35 37 40 41 43 44 45 49 .2 19 39 .2 19 40 .2 19 42 .2 19 43 .2 19 45 .2 19 46 .2 19 49 .2 20 37 .2 20 38 .2 20 40 .2 20 41 .2 20 45 .2 20 46 .2 20 47 .2 20 48 .2 20 50 .2 20 51 .2 21 36 .2 21 38 .2 21 39 .2 21 42 .2 21 46 .2 21 47 .2 21 48 .2 21 49 .2 21 51 .2 22 36 .2 22 37 .2 22 40 .2 22 41 .2 22 42 .2 22 43 .2 22 45 .2 22 47 .2 22 49 .2 22 50 .2 23 38 .2 23 39 .2 23 42 .2 23 47 .2 23 48 .2 23 49 .2 23 51 .2 24 36 .2 24 37 .2 24 39 .2 24 41 .2 24 42 .2 24 44 .2 24 45 .2 24 46 .2 24 47 .2 24 48 .2 24 49 .2 24 51 .2 25 36 .2 25 37 .2 25 39 .2 25 40 .2 25 41 .2 25 42 .2 25 44 .2 25 45 .2 25 47 .2 26 37 .2 26 38 .2 26 39 .2 26 40 .2 26 42 .2 26 43 .2 26 45 .2 27 36 .2 27 37 .2 27 38 .2 27 40 .2 27 41 .2 27 43 .2 27 51 .2 28 36 .2 28 38 .2 28 39 .2 28 41 .2 28 49 .2 28 51 .2 29 36 .2 29 37 .2 29 39 .2 29 47 .2 29 49 .2 30 37 .2 30 45 .2 30 47 .2 31 43 .2 31 45 .2 31 50 .2 32 41 .2 32 43 .2 32 48 .2 32 50 .2 33 39 .2 33 41 .2 33 46 .2 33 48 .2 34 37 .2 34 39 .2 34 44 .2 34 46 .2 34 51 .2 35 37 .2 35 42 .2 35 44 .2 35 49 .2 35 51 .2 36 38 .2 36 40 .2 36 41 .2 36 42 .2 36 45 .2 36 46 .2 36 47 .2 36 49 .2 36 50 .2 37 38 .2 37 39 .2 37 40 .2 37 42 .2 37 43 .2 37 44 .2 37 45 .2 37 49 .2 37 50 .2 37 51 .2 38 39 .2 38 40 .2 38 43 .2 38 44 .2 38 45 .2 38 46 .2 38 47 .2 39 42 .2 39 43 .2 39 44 .2 39 45 .2 39 46 .2 39 47 .2 39 48 .2 39 49 .2 39 50 .2 40 42 .2 40 46 .2 40 49 .2 40 51 .2 41 44 .2 41 45 .2 41 46 .2 41 48 .2 42 47 .2 42 48 .2 42 49 .2 43 44 .2 43 48 .2 43 50 .2 44 45 .2 44 47 .2 44 49 .2 44 50 .2 44 51 .2 45 46 .2 45 48 .2 45 50 .2 45 51 .2 46 47 .2 47 48 .2 47 50 .2 47 51 .2 48 49 .2 48 50 .2 49 50 .2 49 51 0
x 25 26 27 28 29 31 33 34 36 38 39 40 42 43 45 50 .2 19 39 .2 19 40 .2 19 41 .2 19 42 .2 19 44 .2 19 45 .2 19 46 .2 19 47 .2 19 48 .2 19 49 .2 19 51 .2 20 36 .2 20 39 .2 20 44 .2 20 46 .2 20 50 .2 20 51 .2 21 36 .2 21 39 .2 21 41 .2 21 46 .2 21 50 .2 22 36 .2 22 37 .2 22 38 .2 22 39 .2 22 40 .2 22 41 .2 22 43 .2 22 44 .2 22 45 .2 22 47 .2 22 50 .2 22 51 .2 23 36 .2 23 38 .2 23 40 .2 23 41 .2 23 43 .2 23 44 .2 23 45 .2 23 46 .2 23 47 .2 23 48 .2 23 49 .2 23 50 .2 24 42 .2 24 44 .2 24 47 .2 24 48 .2 24 49 .2 24 50 .2 25 37 .2 25 38 .2 25 40 .2 25 41 .2 25 42 .2 25 43 .2 25 45 .2 25 46 .2 25 48 .2 26 36 .2 26 38 .2 26 39 .2 26 40 .2 26 41 .2 26 43 .2 26 44 .2 26 46 .2 27 36 .2 27 37 .2 27 38 .2 27 39 .2 27 41 .2 27 42 .2 27 44 .2 28 36 .2 28 37 .2 28 39 .2 28 40 .2 28 42 .2 28 50 .2 29 37 .2 29 38 .2 29 40 .2 29 48 .2 29 50 .2 30 36 .2 30 38 .2 30 46 .2 30 48 .2 31 36 .2 31 44 .2 31 46 .2 31 51 .2 32 42 .2 32 44 .2 32 49 .2 32 51 .2 33 40 .2 33 42 .2 33 47 .2 33 49 .2 34 38 .2 34 40 .2 34 45 .2 34 47 .2 35 36 .2 35 38 .2 35 43 .2 35 45 .2 35 50 .2 36 37 .2 36 38 .2 36 41 .2 36 42 .2 36 47 .2 36 49 .2 36 50 .2 37 42 .2 37 43 .2 37 46 .2 37 48 .2 37 49 .2 37 50 .2 37 51 .2 38 40 .2 38 41 .2 38 42 .2 38 44 .2 38 46 .2 38 50 .2 39 40 .2 39 41 .2 39 45 .2 39 46 .2 39 49 .2 39 50 .2 40 41 .2 40 43 .2 40 44 .2 40 46 .2 40 49 .2 40 50 .2 41 42 .2 41 43 .2 41 45 .2 41 49 .2 41 50 .2 42 43 .2 42 45 .2 42 46 .2 42 49 .2 42 50 .2 42 51 .2 43 46 .2 44 45 .2 44 46 .2 44 47 .2 44 48 .2 45 47 .2 45 48 .2 45 49 .2 45 50 .2 46 48 .2 46 49 .2 46 50 .2 46 51 .2 47 50 .2 47 51 .2 48 49 0
x T 25 28 29 31 32 35 38 39 40 45 46 .2 19 37 .2 19 38 .2 19 41 .2 19 42 .2 19 44 .2 19 45 .2 19 46 .2 19 49 .2 20 39 .2 20 40 .2 20 42 .2 20 43 .2 20 45 .2 20 46 .2 20 49 .2 21 37 .2 21 38 .2 21 40 .2 21 41 .2 21 45 .2 21 46 .2 21 47 .2 21 48 .2 21 50 .2 21 51 .2 22 36 .2 22 38 .2 22 39 .2 22 42 .2 22 46 .2 22 47 .2 22 48 .2 22 49 .2 22 51 .2 23 36 .2 23 37 .2 23 40 .2 23 41 .2 23 42 .2 23 43 .2 23 45 .2 23 47 .2 23 49 .2 23 50 .2 24 38 .2 24 39 .2 24 42 .2 24 47 .2 24 48 .2 24 49 .2 24 51 .2 25 36 .2 25 38 .2 25 39 .2 25 41 .2 25 42 .2 25 43 .2 25 44 .2 25 46 .2 25 47 .2 25 49 .2 26 36 .2 26 37 .2 26 39 .2 26 40 .2 26 41 .2 26 42 .2 26 44 .2 26 45 .2 26 47 .2 27 37 .2 27 38 .2 27 39 .2 27 40 .2 27 42 .2 27 43 .2 27 45 .2 28 36 .2 28 37 .2 28 38 .2 28 40 .2 28 41 .2 28 43 .2 28 51 .2 29 36 .2 29 38 .2 29 39 .2 29 41 .2 29 49 .2 29 51 .2 30 36 .2 30 37 .2 30 39 .2 30 47 .2 30 49 .2 31 37 .2 31 45 .2 31 47 .2 32 43 .2 32 45 .2 32 50 .2 33 41 .2 33 43 .2 33 48 .2 33 50 .2 34 39 .2 34 41 .2 34 46 .2 34 48 .2 35 37 .2 35 39 .2 35 44 .2 35 46 .2 35 51 .2 36 37 .2 36 38 .2 36 39 .2 36 40 .2 36 41 .2 36 45 .2 36 46 .2 36 48 .2 36 49 .2 36 51 .2 37 38 .2 37 39 .2 37 44 .2 37 46 .2 37 47 .2 37 48 .2 37 50 .2 38 39 .2 38 40 .2 38 43 .2 38 44 .2 38 47 .2 38 48 .2 38 49 .2 38 51 .2 39 41 .2 39 45 .2 39 46 .2 39 48 .2 39 51 .2 40 41 .2 40 42 .2 40 43 .2 40 45 .2 40 48 .2 40 50 .2 41 43 .2 41 47 .2 41 49 .2 41 50 .2 41 51 .2 42 43 .2 42 44 .2 42 51 .2 43 45 .2 43 46 .2 43 47 .2 43 48 .2 43 51 .2 44 45 .2 44 47 .2 44 48 .2 44 51 .2 45 47 .2 45 48 .2 45 49 .2 46 48 .2 46 49 .2 47 49 .2 47 50 .2 48 49 .2 49 50 .2 49 51 .2 50 51 0
x 26 29 32 33 35 37 41 48 51 .2 19 36 .2 19 37 .2 19 38 .2 19 39 .2 19 40 .2 19 42 .2 19 44 .2 19 45 .2 19 47 .2 19 49 .2 19 51 .2 20 39 .2 20 40 .2 20 41 .2 20 42 .2 20 44 .2 20 45 .2 20 46 .2 20 47 .2 20 48 .2 20 49 .2 20 51 .2 21 36 .2 21 39 .2 21 44 .2 21 46 .2 21 50 .2 21 51 .2 22 36 .2 22 39 .2 22 41 .2 22 46 .2 22 50 .2 23 36 .2 23 37 .2 23 38 .2 23 39 .2 23 40 .2 23 41 .2 23 43 .2 23 44 .2 23 45 .2 23 47 .2 23 50 .2 23 51 .2 24 36 .2 24 38 .2 24 40 .2 24 41 .2 24 43 .2 24 44 .2 24 45 .2 24 46 .2 24 47 .2 24 48 .2 24 49 .2 24 50 .2 25 36 .2 25 37 .2 25 39 .2 25 40 .2 25 42 .2 25 43 .2 25 44 .2 25 45 .2 25 47 .2 25 48 .2 25 50 .2 26 37 .2 26 38 .2 26 40 .2 26 41 .2 26 42 .2 26 43 .2 26 45 .2 26 46 .2 26 48 .2 27 36 .2 27 38 .2 27 39 .2 27 40 .2 27 41 .2 27 43 .2 27 44 .2 27 46 .2 28 36 .2 28 37 .2 28 38 .2 28 39 .2 28 41 .2 28 42 .2 28 44 .2 29 36 .2 29 37 .2 29 39 .2 29 40 .2 29 42 .2 29 50 .2 30 37 .2 30 38 .2 30 40 .2 30 48 .2 30 50 .2 31 36 .2 31 38 .2 31 46 .2 31 48 .2 32 36 .2 32 44 .2 32 46 .2 32 51 .2 33 42 .2 33 44 .2 33 49 .2 33 51 .2 34 40 .2 34 42 .2 34 47 .2 34 49 .2 35 38 .2 35 40 .2 35 45 .2 35 47 .2 36 37 .2 36 41 .2 36 42 .2 36 44 .2 36 46 .2 37 39 .2 37 41 .2 37 42 .2 37 43 .2 37 46 .2 37 47 .2 37 48 .2 37 50 .2 37 51 .2 38 39 .2 38 40 .2 38 41 .2 38 43 .2 38 44 .2 38 45 .2 38 46 .2 38 50 .2 38 51 .2 39 40 .2 39 41 .2 39 44 .2 39 45 .2 39 46 .2 39 47 .2 39 48 .2 40 43 .2 40 44 .2 40 45 .2 40 46 .2 40 47 .2 40 48 .2 40 49 .2 40 50 .2 40 51 .2 41 43 .2 41 47 .2 41 50 .2 42 45 .2 42 46 .2 42 47 .2 42 49 .2 43 48 .2 43 49 .2 43 50 .2 44 45 .2 44 49 .2 44 51 .2 45 46 .2 45 48 .2 45 50 .2 45 51 .2 46 47 .2 46 49 .2 46 51 .2 47 48 .2 48 49 .2 48 51 .2 49 50 .2 49 51 .2 50 51 0
x 23 26 29 33 34 35 37 38 39 40 42 44 45 46 48 49 51 .2 19 37 .2 19 40 .2 19 43 .2 19 44 .2 19 46 .2 19 49 .2 19 50 .2 19 51 .2 20 37 .2 20 38 .2 20 41 .2 20 42 .2 20 44 .2 20 45 .2 20 46 .2 20 49 .2 21 39 .2 21 40 .2 21 42 .2 21 43 .2 21 45 .2 21 46 .2 21 49 .2 22 37 .2 22 38 .2 22 40 .2 22 41 .2 22 45 .2 22 46 .2 22 47 .2 22 48 .2 22 50 .2 22 51 .2 23 36 .2 23 38 .2 23 39 .2 23 42 .2 23 46 .2 23 47 .2 23 48 .2 23 49 .2 23 51 .2 24 36 .2 24 37 .2 24 40 .2 24 41 .2 24 42 .2 24 43 .2 24 45 .2 24 47 .2 24 49 .2 24 50 .2 25 37 .2 25 38 .2 25 40 .2 25 41 .2 25 43 .2 25 44 .2 25 45 .2 25 46 .2 25 48 .2 25 49 .2 25 51 .2 26 36 .2 26 38 .2 26 39 .2 26 41 .2 26 42 .2 26 43 .2 26 44 .2 26 46 .2 26 47 .2 26 49 .2 27 36 .2 27 37 .2 27 39 .2 27 40 .2 27 41 .2 27 42 .2 27 44 .2 27 45 .2 27 47 .2 28 37 .2 28 38 .2 28 39 .2 28 40 .2 28 42 .2 28 43 .2 28 45 .2 29 36 .2 29 37 .2 29 38 .2 29 40 .2 29 41 .2 29 43 .2 29 51 .2 30 36 .2 30 38 .2 30 39 .2 30 41 .2 30 49 .2 30 51 .2 31 36 .2 31 37 .2 31 39 .2 31 47 .2 31 49 .2 32 37 .2 32 45 .2 32 47 .2 33 43 .2 33 45 .2 33 50 .2 34 41 .2 34 43 .2 34 48 .2 34 50 .2 35 39 .2 35 41 .2 35 46 .2 35 48 .2 36 37 .2 36 41 .2 36 44 .2 36 45 .2 36 46 .2 36 50 .2 36 51 .2 37 38 .2 37 39 .2 37 42 .2 37 43 .2 37 48 .2 37 50 .2 37 51 .2 38 43 .2 38 44 .2 38 47 .2 38 49 .2 38 50 .2 38 51 .2 39 41 .2 39 42 .2 39 43 .2 39 45 .2 39 47 .2 39 51 .2 40 41 .2 40 42 .2 40 46 .2 40 47 .2 40 50 .2 40 51 .2 41 42 .2 41 44 .2 41 45 .2 41 47 .2 41 50 .2 41 51 .2 42 43 .2 42 44 .2 42 46 .2 42 50 .2 42 51 .2 43 44 .2 43 46 .2 43 47 .2 43 50 .2 43 51 .2 44 47 .2 45 46 .2 45 47 .2 45 48 .2 45 49 .2 46 48 .2 46 49 .2 46 50 .2 46 51 .2 47 49 .2 47 50 .2 47 51 .2 48 51 .2 49 50 0
